p cnf 417 576
1 4 6 7 10 12 13 16 17 0
19 20 27 29 30 31 0
37 38 39 44 48 49 51 0
55 57 58 59 61 62 65 67 69 71 0
73 77 80 81 83 87 88 89 90 0
91 92 94 96 98 99 103 108 0
109 110 111 112 115 118 122 123 125 126 0
127 128 129 131 133 134 137 139 140 0
145 146 147 148 150 151 153 154 160 0
163 164 165 169 170 171 172 176 177 178 179 0
182 183 186 187 188 190 191 193 194 197 0
199 200 201 202 205 207 209 210 211 213 0
221 222 225 229 230 234 0
240 241 244 246 247 248 249 0
253 254 255 258 260 261 262 264 265 267 268 0
271 272 273 274 277 278 280 282 283 284 286 0
291 293 294 297 298 300 301 302 305 306 0
308 313 314 315 318 320 322 323 324 0
326 327 330 331 334 335 338 340 342 0
-1 -19 0
-1 -37 0
-1 -55 0
-1 -73 0
-1 -91 0
-1 -109 0
-1 -127 0
-1 -145 0
-1 -163 0
-1 -199 0
-1 -253 0
-1 -271 0
-19 -37 0
-19 -55 0
-19 -73 0
-19 -91 0
-19 -109 0
-19 -127 0
-19 -145 0
-19 -163 0
-19 -199 0
-19 -253 0
-19 -271 0
-37 -55 0
-37 -73 0
-37 -91 0
-37 -109 0
-37 -127 0
-37 -145 0
-37 -163 0
-37 -199 0
-37 -253 0
-37 -271 0
-55 -73 0
-55 -91 0
-55 -109 0
-55 -127 0
-55 -145 0
-55 -163 0
-55 -199 0
-55 -253 0
-55 -271 0
-73 -91 0
-73 -109 0
-73 -127 0
-73 -145 0
-73 -163 0
-73 -199 0
-73 -253 0
-73 -271 0
-91 -109 0
-91 -127 0
-91 -145 0
-91 -163 0
-91 -199 0
-91 -253 0
-91 -271 0
-109 -127 0
-109 -145 0
-109 -163 0
-109 -199 0
-109 -253 0
-109 -271 0
-127 -145 0
-127 -163 0
-127 -199 0
-127 -253 0
-127 -271 0
-145 -163 0
-145 -199 0
-145 -253 0
-145 -271 0
-163 -199 0
-163 -253 0
-163 -271 0
-199 -253 0
-199 -271 0
-253 -271 0
-20 -38 0
-20 -92 0
-20 -110 0
-20 -128 0
-20 -146 0
-20 -164 0
-20 -182 0
-20 -200 0
-20 -254 0
-20 -272 0
-20 -308 0
-20 -326 0
-38 -92 0
-38 -110 0
-38 -128 0
-38 -146 0
-38 -164 0
-38 -182 0
-38 -200 0
-38 -254 0
-38 -272 0
-38 -308 0
-38 -326 0
-92 -110 0
-92 -128 0
-92 -146 0
-92 -164 0
-92 -182 0
-92 -200 0
-92 -254 0
-92 -272 0
-92 -308 0
-92 -326 0
-110 -128 0
-110 -146 0
-110 -164 0
-110 -182 0
-110 -200 0
-110 -254 0
-110 -272 0
-110 -308 0
-110 -326 0
-128 -146 0
-128 -164 0
-128 -182 0
-128 -200 0
-128 -254 0
-128 -272 0
-128 -308 0
-128 -326 0
-146 -164 0
-146 -182 0
-146 -200 0
-146 -254 0
-146 -272 0
-146 -308 0
-146 -326 0
-164 -182 0
-164 -200 0
-164 -254 0
-164 -272 0
-164 -308 0
-164 -326 0
-182 -200 0
-182 -254 0
-182 -272 0
-182 -308 0
-182 -326 0
-200 -254 0
-200 -272 0
-200 -308 0
-200 -326 0
-254 -272 0
-254 -308 0
-254 -326 0
-272 -308 0
-272 -326 0
-308 -326 0
-39 -57 0
-39 -111 0
-39 -343 0
-57 -111 0
-57 -343 0
-111 -343 0
343 -129 0
343 -147 0
343 -344 0
-129 -147 0
-129 -344 0
-147 -344 0
344 -165 0
344 -183 0
344 -345 0
-165 -183 0
-165 -345 0
-183 -345 0
345 -201 0
345 -255 0
345 -346 0
-201 -255 0
-201 -346 0
-255 -346 0
346 -273 0
346 -291 0
346 -327 0
-273 -291 0
-273 -327 0
-291 -327 0
-4 347 0
-58 348 0
-58 -347 0
-347 348 0
-94 349 0
-94 -348 0
-348 349 0
-112 350 0
-112 -349 0
-349 350 0
-148 351 0
-148 -350 0
-350 351 0
-202 352 0
-202 -351 0
-351 352 0
-274 -352 0
-59 353 0
-77 354 0
-77 -353 0
-353 354 0
-131 355 0
-131 -354 0
-354 355 0
-221 356 0
-221 -355 0
-355 356 0
-293 -356 0
-6 -96 0
-6 -150 0
-6 -186 0
-6 -222 0
-6 -240 0
-6 -258 0
-6 -294 0
-6 -330 0
-96 -150 0
-96 -186 0
-96 -222 0
-96 -240 0
-96 -258 0
-96 -294 0
-96 -330 0
-150 -186 0
-150 -222 0
-150 -240 0
-150 -258 0
-150 -294 0
-150 -330 0
-186 -222 0
-186 -240 0
-186 -258 0
-186 -294 0
-186 -330 0
-222 -240 0
-222 -258 0
-222 -294 0
-222 -330 0
-240 -258 0
-240 -294 0
-240 -330 0
-258 -294 0
-258 -330 0
-294 -330 0
-7 357 0
-61 358 0
-61 -357 0
-357 358 0
-115 359 0
-115 -358 0
-358 359 0
-133 360 0
-133 -359 0
-359 360 0
-151 361 0
-151 -360 0
-360 361 0
-169 362 0
-169 -361 0
-361 362 0
-187 363 0
-187 -362 0
-362 363 0
-205 364 0
-205 -363 0
-363 364 0
-241 365 0
-241 -364 0
-364 365 0
-277 366 0
-277 -365 0
-365 366 0
-313 367 0
-313 -366 0
-366 367 0
-331 -367 0
-44 368 0
-62 369 0
-62 -368 0
-368 369 0
-80 370 0
-80 -369 0
-369 370 0
-98 371 0
-98 -370 0
-370 371 0
-134 372 0
-134 -371 0
-371 372 0
-170 373 0
-170 -372 0
-372 373 0
-188 374 0
-188 -373 0
-373 374 0
-260 375 0
-260 -374 0
-374 375 0
-278 376 0
-278 -375 0
-375 376 0
-314 -376 0
-27 -81 0
-27 -99 0
-27 -377 0
-81 -99 0
-81 -377 0
-99 -377 0
377 -153 0
377 -171 0
377 -378 0
-153 -171 0
-153 -378 0
-171 -378 0
378 -207 0
378 -225 0
378 -379 0
-207 -225 0
-207 -379 0
-225 -379 0
379 -261 0
379 -297 0
379 -315 0
-261 -297 0
-261 -315 0
-297 -315 0
-10 380 0
-118 381 0
-118 -380 0
-380 381 0
-154 382 0
-154 -381 0
-381 382 0
-172 383 0
-172 -382 0
-382 383 0
-190 384 0
-190 -383 0
-383 384 0
-244 385 0
-244 -384 0
-384 385 0
-262 386 0
-262 -385 0
-385 386 0
-280 387 0
-280 -386 0
-386 387 0
-298 388 0
-298 -387 0
-387 388 0
-334 -388 0
-29 389 0
-65 390 0
-65 -389 0
-389 390 0
-83 391 0
-83 -390 0
-390 391 0
-137 392 0
-137 -391 0
-391 392 0
-191 393 0
-191 -392 0
-392 393 0
-209 394 0
-209 -393 0
-393 394 0
-335 -394 0
-12 -30 0
-12 -48 0
-12 -395 0
-30 -48 0
-30 -395 0
-48 -395 0
395 -210 0
395 -246 0
395 -396 0
-210 -246 0
-210 -396 0
-246 -396 0
396 -264 0
396 -282 0
396 -397 0
-264 -282 0
-264 -397 0
-282 -397 0
397 -300 0
397 -318 0
-300 -318 0
-13 -31 0
-13 -49 0
-13 -398 0
-31 -49 0
-31 -398 0
-49 -398 0
398 -67 0
398 -103 0
398 -399 0
-67 -103 0
-67 -399 0
-103 -399 0
399 -139 0
399 -193 0
399 -400 0
-139 -193 0
-139 -400 0
-193 -400 0
400 -211 0
400 -229 0
400 -401 0
-211 -229 0
-211 -401 0
-229 -401 0
401 -247 0
401 -265 0
401 -402 0
-247 -265 0
-247 -402 0
-265 -402 0
402 -283 0
402 -301 0
-283 -301 0
-122 -140 0
-122 -176 0
-122 -194 0
-122 -230 0
-122 -248 0
-122 -284 0
-122 -302 0
-122 -320 0
-122 -338 0
-140 -176 0
-140 -194 0
-140 -230 0
-140 -248 0
-140 -284 0
-140 -302 0
-140 -320 0
-140 -338 0
-176 -194 0
-176 -230 0
-176 -248 0
-176 -284 0
-176 -302 0
-176 -320 0
-176 -338 0
-194 -230 0
-194 -248 0
-194 -284 0
-194 -302 0
-194 -320 0
-194 -338 0
-230 -248 0
-230 -284 0
-230 -302 0
-230 -320 0
-230 -338 0
-248 -284 0
-248 -302 0
-248 -320 0
-248 -338 0
-284 -302 0
-284 -320 0
-284 -338 0
-302 -320 0
-302 -338 0
-320 -338 0
-51 -69 0
-51 -87 0
-51 -123 0
-51 -177 0
-51 -213 0
-51 -249 0
-51 -267 0
-69 -87 0
-69 -123 0
-69 -177 0
-69 -213 0
-69 -249 0
-69 -267 0
-87 -123 0
-87 -177 0
-87 -213 0
-87 -249 0
-87 -267 0
-123 -177 0
-123 -213 0
-123 -249 0
-123 -267 0
-177 -213 0
-177 -249 0
-177 -267 0
-213 -249 0
-213 -267 0
-249 -267 0
-16 403 0
-88 404 0
-88 -403 0
-403 404 0
-160 405 0
-160 -404 0
-404 405 0
-178 406 0
-178 -405 0
-405 406 0
-268 407 0
-268 -406 0
-406 407 0
-286 408 0
-286 -407 0
-407 408 0
-322 409 0
-322 -408 0
-408 409 0
-340 -409 0
-17 -71 0
-17 -89 0
-17 -410 0
-71 -89 0
-71 -410 0
-89 -410 0
410 -125 0
410 -179 0
410 -411 0
-125 -179 0
-125 -411 0
-179 -411 0
411 -197 0
411 -305 0
411 -323 0
-197 -305 0
-197 -323 0
-305 -323 0
-90 412 0
-108 413 0
-108 -412 0
-412 413 0
-126 414 0
-126 -413 0
-413 414 0
-234 415 0
-234 -414 0
-414 415 0
-306 416 0
-306 -415 0
-415 416 0
-324 417 0
-324 -416 0
-416 417 0
-342 -417 0
